c description: Random 3-CNF over 12 variables and 48 clauses
p cnf 12 48
1 -4 5 0
1 3 -8 0
1 2 11 0
-2 -8 -12 0
7 8 -10 0
-1 2 7 0
4 11 -12 0
1 -2 11 0
3 -6 -11 0
-2 6 11 0
-1 5 -9 0
1 -9 -12 0
2 -7 -12 0
5 9 11 0
-5 9 11 0
-1 -2 9 0
-3 4 -9 0
-5 8 12 0
4 -7 -11 0
-5 -6 12 0
-6 8 -11 0
3 4 11 0
2 3 -10 0
2 -7 11 0
-1 -5 -11 0
-4 7 -12 0
-2 11 -12 0
4 7 -9 0
-2 9 11 0
-3 10 -11 0
-3 -7 -12 0
-3 -9 -12 0
-6 10 11 0
-2 -7 -9 0
5 8 12 0
-5 -6 -9 0
1 -11 12 0
-1 6 8 0
-2 6 7 0
1 -6 7 0
1 2 10 0
4 -9 -10 0
4 -6 -10 0
-4 7 11 0
4 -6 -7 0
2 -9 -10 0
-1 4 12 0
-3 8 9 0